(set-info :smt-lib-version 2.6)
(set-logic UFLIA)
(set-info :source |
Generated by: Geoff Sutcliffe
Generated on: 2026-03-11
Generator: TPTPWorld
Application: Benchmarking automated theorem provers
Time limit: 120.0

These benchmarks are translations from the TPTP Library (Thousands of
Problems for Theorem Provers), see http://www.cs.miami.edu/~tptp/

The TPTP is maintained by Geoff Sutcliffe, and he contributed this
selection of benchmarks to SMT-LIB.  They were exported from the
v9.2.1 realease of TPTP.
|)
(set-info :category "industrial")
(set-info :status "unknown")
; SZS status Success
(declare-sort $$unsorted 0)
(declare-fun tptp.at0 (Int) Bool)
(declare-fun tptp.at1 (Int) Bool)
(declare-fun tptp.at2 (Int) Bool)
(assert (forall ((T Int)) (or (tptp.at0 T) (tptp.at1 T) (tptp.at2 T))))
(assert (forall ((T Int)) (not (and (tptp.at0 T) (tptp.at1 T)))))
(assert (forall ((T Int)) (not (and (tptp.at0 T) (tptp.at2 T)))))
(assert (forall ((T Int)) (not (and (tptp.at1 T) (tptp.at2 T)))))
(assert (forall ((T Int)) (not (and (tptp.at0 T) (tptp.at0 (+ T 1))))))
(assert (forall ((T Int)) (not (and (tptp.at1 T) (tptp.at1 (+ T 1))))))
(assert (forall ((T Int)) (not (and (tptp.at2 T) (tptp.at2 (+ T 1))))))
(assert (forall ((T Int)) (not (tptp.at0 T))))
(check-sat)
